
Log started (V11.0.0) Tue May 13 17:39:19 2008

Tried aggregator 1 time.
Reduced MIP has 110 rows, 1001 columns, and 2010 nonzeros.
Presolve time =    0.02 sec.
Clique table members: 100.
MIP emphasis: balance optimality and feasibility.
MIP search method: dynamic search.
Parallel mode: none, using 1 thread.
Root relaxation solution time =    0.02 sec.

        Nodes                                         Cuts/
   Node  Left     Objective  IInf  Best Integer     Best Node    ItCnt     Gap

*     0+    0                         6049.0000      350.7542      152   94.20%
*     0+    0                          378.0000      350.7542      152    7.21%
      0     0      351.0000    20      378.0000      Fract: 5      166    7.14%
*     0+    0                          374.0000      351.0000      166    6.15%
      0     0      351.1450    25      374.0000     Covers: 1      215    6.11%
*     0+    0                          365.0000      351.1450      215    3.80%
      0     0      352.8991    35      365.0000      Cuts: 11      273    3.32%
      0     0      353.5898    37      365.0000       Cuts: 9      350    3.13%
      0     0      354.0192    43      365.0000       Cuts: 7      388    3.01%
      0     0      354.4703    54      365.0000       Cuts: 9      430    2.88%
      0     0      354.6079    56      365.0000    MIRcuts: 5      452    2.85%
      0     0      355.0390    45      365.0000       Cuts: 5      509    2.73%
      0     0      356.4363    33      365.0000       Cuts: 5      558    2.35%
      0     0      356.4519    36      365.0000       Cuts: 2      566    2.34%
      0     0      356.4622    35      365.0000       Cuts: 2      573    2.34%
*     0+    0                          364.0000      356.4622      573    2.07%
*     0+    0                          360.0000      356.4622      573    0.98%
      0     2      357.0000    30      360.0000      356.4622      573    0.98%
    100    91      358.0000    11      360.0000      357.0000     3744    0.83%
    200   129      359.0000    11      360.0000      357.0000     7493    0.83%
*   209+   95                          359.0000      357.0000     7856    0.56%
    300   155      358.0000    18      359.0000      357.0000     9530    0.56%
    400   208      358.0000    14      359.0000      357.0000    11526    0.56%
    500   270      358.0000     6      359.0000      358.0000    14910    0.28%

Cover cuts applied:  26
Mixed integer rounding cuts applied:  14
Zero-half cuts applied:  2
Gomory fractional cuts applied:  6

Solution pool: 7 solutions saved.

MIP - Integer optimal solution:  Objective = 3.5900000000e+002
Solution time =    3.58 sec.  Iterations = 22596  Nodes = 593 (201)


Incumbent solution
Variable Name           Solution Value
Cmax                        359.000000
X_1_5                         1.000000
X_2_9                         1.000000
X_3_8                         1.000000
X_4_3                         1.000000
X_5_2                         1.000000
X_6_3                         1.000000
X_7_3                         1.000000
X_8_5                         1.000000
X_9_3                         1.000000
X_10_10                       1.000000
X_11_6                        1.000000
X_12_7                        1.000000
X_13_5                        1.000000
X_14_3                        1.000000
X_15_3                        1.000000
X_16_10                       1.000000
X_17_8                        1.000000
X_18_5                        1.000000
X_19_6                        1.000000
X_20_7                        1.000000
X_21_3                        1.000000
X_22_4                        1.000000
X_23_9                        1.000000
X_24_6                        1.000000
X_25_6                        1.000000
X_26_4                        1.000000
X_27_3                        1.000000
X_28_6                        1.000000
X_29_3                        1.000000
X_30_2                        1.000000
X_31_3                        1.000000
X_32_8                        1.000000
X_33_6                        1.000000
X_34_3                        1.000000
X_35_10                       1.000000
X_36_1                        1.000000
X_37_1                        1.000000
X_38_6                        1.000000
X_39_5                        1.000000
X_40_1                        1.000000
X_41_5                        1.000000
X_42_5                        1.000000
X_43_8                        1.000000
X_44_4                        1.000000
X_45_8                        1.000000
X_46_6                        1.000000
X_47_6                        1.000000
X_48_4                        1.000000
X_49_2                        1.000000
X_50_3                        1.000000
X_51_8                        1.000000
X_52_8                        1.000000
X_53_2                        1.000000
X_54_5                        1.000000
X_55_3                        1.000000
X_56_6                        1.000000
X_57_5                        1.000000
X_58_3                        1.000000
X_59_4                        1.000000
X_60_8                        1.000000
X_61_10                       1.000000
X_62_6                        1.000000
X_63_6                        1.000000
X_64_2                        1.000000
X_65_5                        1.000000
X_66_3                        1.000000
X_67_4                        1.000000
X_68_6                        1.000000
X_69_6                        1.000000
X_70_10                       1.000000
X_71_8                        1.000000
X_72_6                        1.000000
X_73_7                        1.000000
X_74_7                        1.000000
X_75_5                        1.000000
X_76_5                        1.000000
X_77_9                        1.000000
X_78_6                        1.000000
X_79_1                        1.000000
X_80_3                        1.000000
X_81_4                        1.000000
X_82_7                        1.000000
X_83_6                        1.000000
X_84_6                        1.000000
X_85_6                        1.000000
X_86_6                        1.000000
X_87_6                        1.000000
X_88_9                        1.000000
X_89_8                        1.000000
X_90_8                        1.000000
X_91_2                        1.000000
X_92_6                        1.000000
X_93_3                        1.000000
X_94_10                       1.000000
X_95_2                        1.000000
X_96_3                        1.000000
X_97_8                        1.000000
X_98_6                        1.000000
X_99_6                        1.000000
X_100_10                      1.000000
All other variables in the range 1-1001 are 0.
